language ESSENCE' 1.0

letting n_courses be 111
letting n_periods be 27
letting prerequisite_RelationAsSet_Explicit_1 be
        [1, 1, 1, 1, 1, 1, 1, 1, 1, 2, 2, 2, 2, 2, 2, 3, 3, 3, 3, 3, 3, 3, 3, 3, 4, 4, 4, 4, 4, 4, 5, 5, 5, 5, 5, 5, 5,
         5, 6, 6, 6, 6, 6, 6, 6, 6, 7, 7, 7, 7, 7, 7, 7, 7, 7, 7, 8, 8, 8, 8, 8, 8, 8, 9, 9, 9, 9, 9, 9, 9, 9, 9, 9, 9,
         9, 9, 10, 10, 10, 10, 10, 10, 10, 10, 10, 10, 10, 10, 11, 11, 11, 11, 11, 11, 11, 11, 11, 12, 12, 12, 12, 12,
         12, 12, 12, 13, 13, 13, 13, 13, 14, 14, 14, 14, 14, 14, 14, 14, 15, 15, 15, 15, 15, 15, 15, 15, 15, 16, 16, 16,
         16, 16, 16, 16, 16, 17, 17, 17, 17, 17, 17, 17, 17, 17, 17, 18, 18, 18, 18, 18, 18, 18, 18, 18, 18, 19, 19, 19,
         20, 22, 22, 23, 23, 24, 24, 24, 24, 25, 25, 25, 25, 25, 25, 25, 25, 27, 27, 28, 28, 29, 29, 29, 29, 29, 29, 30,
         30, 31, 31, 34, 35, 35, 36, 36, 37, 37, 37, 37, 38, 39, 39, 40, 41, 41, 42, 42, 42, 42, 42, 43, 43, 43, 43, 43,
         43, 44, 44, 44, 44, 44, 45, 45, 46, 46, 46, 46, 47, 47, 47, 48, 48, 48, 48, 48, 48, 49, 49, 49, 50, 50, 51, 51,
         51, 52, 52, 52, 53, 53, 53, 53, 53, 53, 53, 53, 53, 54, 54, 54, 55, 55, 56, 56, 56, 57, 57, 57, 58, 59, 59, 60,
         61, 61, 61, 61, 62, 63, 63, 63, 63, 63, 64, 64, 65, 65, 65, 66, 66, 66, 66, 67, 67, 67, 67, 68, 68, 68, 69, 69,
         69, 70, 70, 71, 71, 72, 72, 72;
             int(1..306)]
letting prerequisite_RelationAsSet_Explicit_2 be
        [21, 27, 29, 39, 47, 49, 52, 58, 72, 20, 27, 32, 39, 42, 65, 21, 27, 34, 41, 48, 53, 60, 61, 69, 25, 27, 29, 50,
         52, 70, 23, 24, 26, 37, 40, 47, 56, 71, 19, 20, 38, 49, 52, 53, 57, 61, 19, 20, 33, 49, 50, 57, 66, 67, 68, 72,
         19, 23, 29, 30, 41, 56, 71, 21, 23, 30, 31, 35, 36, 39, 48, 59, 65, 67, 68, 69, 20, 34, 36, 39, 45, 50, 51, 53,
         63, 69, 70, 71, 22, 25, 33, 35, 45, 52, 55, 59, 71, 35, 43, 44, 49, 51, 64, 66, 70, 20, 28, 29, 35, 71, 22, 34,
         44, 46, 48, 58, 69, 70, 25, 31, 37, 44, 50, 54, 55, 56, 72, 21, 23, 29, 34, 41, 54, 59, 65, 25, 26, 35, 38, 40,
         57, 58, 62, 67, 70, 19, 24, 28, 29, 32, 38, 45, 48, 63, 65, 73, 74, 111, 81, 79, 99, 97, 102, 77, 103, 106,
         108, 79, 83, 85, 88, 96, 100, 101, 108, 85, 86, 77, 99, 74, 87, 97, 98, 99, 107, 74, 94, 73, 90, 88, 75, 105,
         101, 109, 89, 90, 109, 110, 83, 101, 103, 104, 78, 95, 75, 78, 82, 83, 97, 76, 91, 94, 95, 97, 110, 76, 84, 88,
         94, 106, 83, 105, 98, 100, 101, 107, 84, 100, 105, 76, 84, 98, 100, 104, 106, 83, 87, 101, 81, 84, 73, 92, 98,
         95, 98, 99, 73, 79, 81, 82, 95, 97, 104, 106, 107, 73, 90, 101, 78, 91, 80, 84, 104, 79, 92, 93, 108, 89, 92,
         103, 74, 81, 100, 106, 92, 74, 76, 79, 101, 105, 89, 98, 81, 87, 90, 73, 74, 92, 102, 76, 98, 100, 101, 80, 98,
         108, 77, 83, 87, 76, 111, 77, 98, 84, 90, 93;
             int(1..306)]
letting course_load_Function1D be
        [4, 6, 7, 6, 7, 5, 5, 8, 5, 5, 5, 8, 8, 9, 7, 9, 4, 9, 6, 9, 5, 4, 6, 5, 5, 4, 4, 9, 8, 7, 5, 7, 7, 5, 4, 8, 4,
         6, 5, 5, 6, 6, 4, 8, 7, 6, 5, 4, 6, 6, 4, 5, 8, 9, 5, 5, 7, 7, 6, 7, 8, 8, 7, 8, 7, 4, 8, 8, 6, 7, 8, 6, 9, 4,
         8, 9, 6, 4, 7, 5, 8, 8, 9, 6, 7, 8, 5, 7, 7, 6, 8, 8, 7, 8, 4, 7, 6, 6, 5, 6, 7, 7, 4, 8, 8, 8, 5, 4, 8, 4, 8;
             int(1..111)]
letting load_per_period_ub be 27
letting load_per_period_lb be 6
letting courses_per_period_ub be 8
letting courses_per_period_lb be 3
letting fin1 be 306
letting fin2 be 111
letting fin3 be 9
